Maximize
  0.000219729 Z_302_0_0 + 0.000716162 Z_302_0_1
   + 0.7100540971581174 Z_302_0_2 + 0.00104062654634152 Z_302_0_3
   + 0.1879693851692335 Z_302_0_4 + 0.00202784946278852 Z_554_0_0
   + 0.00168975462083879 Z_554_0_1 + 0.3997379521995165 Z_554_0_2
   + 0.0017649263325186 Z_554_0_3 + 0.4947795173843376 Z_554_0_4 + [
   0.0498261447101109 Z_302_0_0 * Z_554_0_0
   + 0.0498261447101109 Z_302_0_1 * Z_554_0_1
   + 0.0498261447101109 Z_302_0_2 * Z_554_0_2
   + 0.0498261447101109 Z_302_0_3 * Z_554_0_3
   + 0.0498261447101109 Z_302_0_4 * Z_554_0_4 ] / 2 
Subject To
 constraint1_3020: Z_302_0_0 + Z_302_0_1 + Z_302_0_2 + Z_302_0_3
   + Z_302_0_4 <= 1
 constraint1_5540: Z_554_0_0 + Z_554_0_1 + Z_554_0_2 + Z_554_0_3
   + Z_554_0_4 <= 1
 constraint2_3020: Z_302_0_0 <= 1
 constraint2_3021: Z_302_0_1 <= 1
 constraint2_3022: Z_302_0_2 <= 1
 constraint2_3023: Z_302_0_3 <= 1
 constraint2_5540: Z_554_0_0 <= 1
 constraint2_5541: Z_554_0_1 <= 1
 constraint2_5542: Z_554_0_2 <= 1
 constraint2_5543: Z_554_0_3 <= 1
Bounds
Binaries
 Z_302_0_0 Z_302_0_1 Z_302_0_2 Z_302_0_3 Z_302_0_4 Z_554_0_0 Z_554_0_1
 Z_554_0_2 Z_554_0_3 Z_554_0_4
End
